nNurses = 52;
nHours = 40;
minHours = 9;
maxHours = 19;
maxConsec = 11;
maxPresence = 34;
demand = [19, 14, 17, 22, 24, 19, 17, 15, 18, 17, 17, 16, 16, 16, 12, 14, 14, 15, 12, 11, 10, 6, 9, 11, 12, 13, 8, 7, 8, 10, 12, 10, 13, 9, 11, 13, 15, 15, 17, 14];
